# Cost: 163

# Tail Head Net
5 25 1
25 26 1
25 45 1
26 27 1
27 28 1
28 29 1
29 30 1
30 31 1
31 32 1
32 33 1
33 34 1
34 35 1
35 36 1
36 37 1
37 38 1
38 39 1
39 40 1
45 65 1
65 85 1
82 102 1
83 82 1
84 83 1
85 84 1
101 121 1
102 101 1
121 141 1
141 161 1
161 181 1
181 201 1
201 221 1
221 241 1
241 261 1
60 460 2
80 60 2
100 80 2
120 100 2
120 140 2
140 160 2
160 180 2
180 200 2
200 220 2
220 240 2
240 260 2
260 280 2
272 292 2
273 272 2
274 273 2
275 274 2
276 275 2
277 276 2
278 277 2
279 278 2
280 279 2
282 281 2
283 282 2
284 283 2
285 284 2
286 285 2
287 286 2
288 287 2
289 288 2
290 289 2
291 290 2
292 291 2
420 20 2
440 420 2
460 440 2
327 328 3
328 329 3
329 330 3
330 331 3
331 332 3
332 333 3
333 334 3
334 335 3
335 336 3
336 337 3
337 338 3
338 339 3
339 340 3
340 320 3
346 347 3
347 327 3
365 366 3
366 346 3
383 384 3
384 385 3
385 365 3
8 7 4
9 8 4
10 9 4
11 10 4
16 17 5
16 416 5
373 393 5
374 373 5
375 374 5
389 388 5
390 389 5
391 390 5
392 391 5
393 392 5
416 436 5
436 456 5
456 476 5
476 496 5
496 516 5
516 536 5
536 556 5
556 576 5
576 596 5
596 616 5
616 636 5
636 656 5
656 676 5
676 696 5
696 716 5
716 736 5
736 756 5
756 776 5
775 375 5
776 775 5
395 396 6
396 397 6
14 414 7
355 356 7
356 357 7
357 358 7
358 359 7
359 360 7
414 434 7
434 454 7
454 474 7
474 494 7
494 514 7
514 534 7
534 554 7
554 574 7
574 594 7
594 614 7
614 615 7
615 635 7
635 655 7
655 675 7
675 695 7
695 715 7
715 735 7
735 755 7
755 355 7
399 799 8
787 387 8
788 787 8
789 788 8
790 789 8
791 790 8
792 791 8
793 792 8
794 793 8
795 794 8
796 795 8
797 796 8
798 797 8
799 798 8
